1 3 100 22732.53
1 3 200 22283.00
1 3 300 22843.29
2 3 100 24408.75
2 3 200 24407.10
2 3 300 24378.93
3 3 100 24196.70
3 3 200 23928.36
3 3 300 24215.30
4 3 100 23542.92
4 3 200 23195.96
4 3 300 23645.80
5 3 100 22435.51
5 3 200 23021.83
5 3 300 22359.86
